p tw 20 58
1 12
1 19
1 5
1 6
1 8
1 9
1 10
2 16
2 19
2 20
2 5
2 6
2 9
2 10
13 14
16 17
3 11
3 12
3 13
3 14
3 16
3 17
3 20
3 7
4 13
4 15
4 16
4 17
4 19
4 5
4 7
4 9
5 14
5 19
5 20
5 7
5 8
5 9
6 14
6 17
6 18
7 12
7 13
7 16
7 19
7 9
8 11
8 13
8 14
8 16
8 18
9 11
9 13
9 14
9 15
9 16
9 10
10 12
